p edge 65 455 51
e 48 54
e 48 18
e 48 5
e 48 8
e 48 56
e 48 60
e 48 30
e 48 3
e 48 64
e 48 44
e 48 36
e 48 12
e 48 42
e 48 15
e 54 49
e 54 43
e 54 44
e 54 16
e 54 27
e 54 58
e 54 57
e 54 22
e 54 31
e 54 9
e 54 50
e 54 55
e 54 64
e 60 65
e 60 52
e 60 44
e 60 6
e 60 25
e 60 39
e 60 50
e 60 42
e 60 34
e 60 45
e 60 27
e 60 35
e 60 11
e 65 63
e 65 17
e 65 58
e 65 20
e 65 31
e 65 39
e 65 37
e 65 2
e 65 5
e 65 46
e 65 35
e 65 30
e 65 3
e 30 33
e 30 37
e 30 18
e 30 31
e 30 10
e 30 21
e 30 63
e 30 58
e 30 53
e 30 57
e 30 17
e 30 28
e 33 3
e 33 23
e 33 51
e 33 15
e 33 55
e 33 17
e 33 36
e 33 16
e 33 44
e 33 53
e 33 13
e 33 38
e 33 31
e 1 6
e 1 57
e 1 38
e 1 19
e 1 46
e 1 32
e 1 9
e 1 13
e 1 8
e 1 63
e 1 35
e 1 44
e 1 53
e 1 62
e 6 61
e 6 47
e 6 56
e 6 4
e 6 28
e 6 55
e 6 31
e 6 2
e 6 49
e 6 21
e 6 52
e 6 14
e 9 19
e 9 47
e 9 28
e 9 14
e 9 32
e 9 50
e 9 18
e 9 59
e 9 44
e 9 34
e 9 5
e 9 15
e 19 22
e 19 59
e 19 63
e 19 26
e 19 25
e 19 43
e 19 11
e 19 46
e 19 64
e 19 32
e 19 41
e 19 50
e 22 38
e 22 56
e 22 50
e 22 17
e 22 64
e 22 40
e 22 26
e 22 62
e 22 4
e 22 39
e 22 7
e 22 24
e 38 34
e 38 7
e 38 12
e 38 59
e 38 21
e 38 24
e 38 26
e 38 27
e 38 52
e 38 56
e 38 42
e 7 49
e 7 58
e 7 25
e 7 46
e 7 55
e 7 23
e 7 41
e 7 59
e 7 18
e 7 45
e 7 26
e 7 21
e 49 64
e 49 29
e 49 18
e 49 40
e 49 46
e 49 3
e 49 52
e 49 25
e 49 47
e 49 39
e 49 12
e 64 31
e 64 3
e 64 23
e 64 4
e 64 40
e 64 59
e 64 16
e 64 57
e 64 35
e 58 2
e 58 21
e 58 61
e 58 51
e 58 13
e 58 16
e 58 46
e 58 41
e 58 3
e 58 34
e 56 44
e 56 25
e 56 61
e 56 17
e 56 31
e 56 18
e 56 52
e 56 8
e 56 63
e 56 3
e 11 37
e 11 23
e 11 4
e 11 36
e 11 26
e 11 5
e 11 35
e 11 53
e 11 62
e 11 21
e 11 20
e 11 42
e 37 39
e 37 25
e 37 17
e 37 20
e 37 4
e 37 59
e 37 45
e 37 10
e 37 2
e 37 5
e 37 16
e 42 52
e 42 25
e 42 17
e 42 23
e 42 55
e 42 59
e 42 26
e 42 10
e 42 53
e 42 57
e 52 45
e 52 55
e 52 40
e 52 26
e 52 28
e 52 47
e 52 31
e 52 20
e 3 46
e 3 27
e 3 4
e 3 26
e 3 53
e 3 34
e 3 47
e 23 29
e 23 47
e 23 28
e 23 12
e 23 59
e 23 15
e 23 26
e 23 16
e 23 8
e 29 4
e 29 35
e 29 53
e 29 57
e 29 18
e 29 10
e 29 24
e 29 27
e 29 16
e 29 51
e 29 46
e 29 12
e 47 20
e 47 2
e 47 59
e 47 18
e 47 21
e 47 5
e 47 35
e 47 41
e 15 43
e 15 13
e 15 55
e 15 50
e 15 27
e 15 36
e 15 31
e 15 26
e 15 40
e 15 35
e 43 45
e 43 63
e 43 40
e 43 57
e 43 8
e 43 36
e 43 25
e 43 17
e 43 50
e 43 20
e 43 12
e 16 17
e 16 57
e 16 34
e 16 24
e 16 61
e 16 55
e 16 50
e 17 51
e 17 45
e 17 62
e 17 10
e 17 24
e 61 28
e 61 45
e 61 10
e 61 21
e 61 51
e 61 13
e 61 24
e 61 27
e 61 46
e 61 8
e 45 14
e 45 20
e 45 51
e 45 50
e 45 2
e 45 24
e 45 27
e 46 25
e 46 63
e 46 32
e 46 24
e 46 5
e 4 20
e 4 24
e 4 13
e 4 26
e 4 2
e 4 63
e 4 62
e 44 50
e 44 21
e 44 24
e 44 13
e 44 41
e 44 28
e 44 34
e 20 32
e 20 59
e 20 40
e 20 57
e 20 25
e 20 12
e 18 40
e 18 26
e 18 14
e 18 41
e 18 2
e 18 13
e 40 53
e 40 57
e 40 13
e 40 55
e 40 31
e 40 32
e 10 63
e 10 31
e 10 21
e 10 39
e 10 34
e 10 8
e 10 51
e 10 14
e 63 51
e 63 27
e 63 57
e 63 41
e 63 34
e 34 32
e 34 13
e 34 5
e 34 50
e 34 28
e 36 51
e 36 41
e 36 25
e 36 62
e 36 39
e 36 2
e 36 21
e 36 13
e 36 5
e 55 28
e 55 2
e 55 32
e 55 35
e 55 8
e 51 14
e 51 28
e 51 12
e 51 5
e 51 8
e 28 14
e 28 25
e 28 62
e 28 27
e 24 35
e 24 39
e 24 57
e 24 27
e 25 31
e 25 8
e 26 14
e 26 2
e 39 32
e 39 13
e 39 8
e 39 14
e 39 57
e 39 12
e 35 13
e 35 59
e 35 5
e 35 53
e 8 12
e 8 14
e 8 41
e 12 50
e 12 31
e 12 59
e 12 62
e 31 2
e 53 32
e 53 13
e 53 59
e 53 14
e 53 62
e 50 14
e 50 62
e 27 62
e 27 5
e 27 41
e 14 2
e 14 21
e 2 41
e 57 32
e 21 32
e 21 59
e 32 62
e 32 41
e 62 5
e 62 41
e 41 5
